1948.93
0 21 60 5 8 0
0 39 10 11 19 0
0 55 50 16 2 26 0
0 72 66 54 48 45 0
0 24 49 33 22 47 0
0 35 14 52 27 29 0
0 51 63 18 53 34 75 0
0 13 20 37 73 3 67 0
0 43 56 31 17 15 0
0 74 30 44 46 0
0 71 36 25 9 65 7 12 0
0 41 64 61 57 32 0
0 70 28 62 6 68 0
0 69 1 42 23 40 58 0
0 38 59 4 0
